\ Model Staff Scheduling Problem with Skill Level Constraints
\ LP format - for model browsing. Use MPS format to capture full model detail.
Minimize
  x[0,0] + x[0,1] + x[0,2] + x[0,3] + x[0,4] + x[1,0] + x[1,1] + x[1,2]
   + x[1,3] + x[1,4] + x[2,0] + x[2,1] + x[2,2] + x[2,3] + x[2,4] + x[3,0]
   + x[3,1] + x[3,2] + x[3,3] + x[3,4] + x[4,0] + x[4,1] + x[4,2] + x[4,3]
   + x[4,4] + x[5,0] + x[5,1] + x[5,2] + x[5,3] + x[5,4] + x[6,0] + x[6,1]
   + x[6,2] + x[6,3] + x[6,4] + x[7,0] + x[7,1] + x[7,2] + x[7,3] + x[7,4]
   + x[8,0] + x[8,1] + x[8,2] + x[8,3] + x[8,4] + x[9,0] + x[9,1] + x[9,2]
   + x[9,3] + x[9,4]
Subject To
 R0: x[0,0] + x[1,0] + x[2,0] + x[3,0] + x[4,0] + x[5,0] + x[6,0] + x[7,0]
   + x[8,0] + x[9,0] >= 1
 R1: x[0,1] + x[1,1] + x[2,1] + x[3,1] + x[4,1] + x[5,1] + x[6,1] + x[7,1]
   + x[8,1] + x[9,1] >= 1
 R2: x[0,2] + x[1,2] + x[2,2] + x[3,2] + x[4,2] + x[5,2] + x[6,2] + x[7,2]
   + x[8,2] + x[9,2] >= 1
 R3: x[0,3] + x[1,3] + x[2,3] + x[3,3] + x[4,3] + x[5,3] + x[6,3] + x[7,3]
   + x[8,3] + x[9,3] >= 1
 R4: x[0,4] + x[1,4] + x[2,4] + x[3,4] + x[4,4] + x[5,4] + x[6,4] + x[7,4]
   + x[8,4] + x[9,4] >= 1
 R5: 5.898834691789403 x[0,0] + 7.746103382675387 x[0,1]
   + 8.96588750176787 x[0,2] + 8.686317663707536 x[0,3]
   + 11.77375888070395 x[0,4] <= 1e+06
 R6: 5.898834691789403 x[1,0] + 7.746103382675387 x[1,1]
   + 8.96588750176787 x[1,2] + 8.686317663707536 x[1,3]
   + 11.77375888070395 x[1,4] <= 1e+06
 R7: 5.898834691789403 x[2,0] + 7.746103382675387 x[2,1]
   + 8.96588750176787 x[2,2] + 8.686317663707536 x[2,3]
   + 11.77375888070395 x[2,4] <= 1e+06
 R8: 5.898834691789403 x[3,0] + 7.746103382675387 x[3,1]
   + 8.96588750176787 x[3,2] + 8.686317663707536 x[3,3]
   + 11.77375888070395 x[3,4] <= 1e+06
 R9: 5.898834691789403 x[4,0] + 7.746103382675387 x[4,1]
   + 8.96588750176787 x[4,2] + 8.686317663707536 x[4,3]
   + 11.77375888070395 x[4,4] <= 1e+06
 R10: 5.898834691789403 x[5,0] + 7.746103382675387 x[5,1]
   + 8.96588750176787 x[5,2] + 8.686317663707536 x[5,3]
   + 11.77375888070395 x[5,4] <= 1e+06
 R11: 5.898834691789403 x[6,0] + 7.746103382675387 x[6,1]
   + 8.96588750176787 x[6,2] + 8.686317663707536 x[6,3]
   + 11.77375888070395 x[6,4] <= 1e+06
 R12: 5.898834691789403 x[7,0] + 7.746103382675387 x[7,1]
   + 8.96588750176787 x[7,2] + 8.686317663707536 x[7,3]
   + 11.77375888070395 x[7,4] <= 1e+06
 R13: 5.898834691789403 x[8,0] + 7.746103382675387 x[8,1]
   + 8.96588750176787 x[8,2] + 8.686317663707536 x[8,3]
   + 11.77375888070395 x[8,4] <= 1e+06
 R14: 5.898834691789403 x[9,0] + 7.746103382675387 x[9,1]
   + 8.96588750176787 x[9,2] + 8.686317663707536 x[9,3]
   + 11.77375888070395 x[9,4] <= 1e+06
 R15: x[0,0] <= 1
 R16: x[1,0] <= 1
 R17: x[2,0] <= 1
 R18: x[3,0] <= 1
 R19: x[4,0] <= 1
 R20: x[5,0] <= 1
 R21: x[6,0] <= 1
 R22: x[7,0] <= 1
 R23: x[8,0] <= 1
 R24: x[9,0] <= 1
 R25: x[0,1] <= 1
 R26: x[1,1] <= 1
 R27: x[2,1] <= 1
 R28: x[3,1] <= 1
 R29: x[4,1] <= 1
 R30: x[5,1] <= 1
 R31: x[6,1] <= 1
 R32: x[7,1] <= 1
 R33: x[8,1] <= 1
 R34: x[9,1] <= 1
 R35: x[0,2] <= 1
 R36: x[1,2] <= 1
 R37: x[2,2] <= 1
 R38: x[3,2] <= 1
 R39: x[4,2] <= 1
 R40: x[5,2] <= 1
 R41: x[6,2] <= 1
 R42: x[7,2] <= 1
 R43: x[8,2] <= 1
 R44: x[9,2] <= 1
 R45: x[0,3] <= 1
 R46: x[1,3] <= 1
 R47: x[2,3] <= 1
 R48: x[3,3] <= 1
 R49: x[4,3] <= 1
 R50: x[5,3] <= 1
 R51: x[6,3] <= 1
 R52: x[7,3] <= 1
 R53: x[8,3] <= 1
 R54: x[9,3] <= 1
 R55: x[0,4] <= 1
 R56: x[1,4] <= 1
 R57: x[2,4] <= 1
 R58: x[3,4] <= 1
 R59: x[4,4] <= 1
 R60: x[5,4] <= 1
 R61: x[6,4] <= 1
 R62: x[7,4] <= 1
 R63: x[8,4] <= 1
 R64: x[9,4] <= 1
Bounds
End
